
n_res = 8;
rcap = [19, 20, 23, 22, 879, 854, 865, 877];
rtype = [1, 1, 1, 1, 2, 2, 2, 2];
n_tasks = 50;
modes =  [{1, 2, 3}, {4, 5, 6}, {7, 8, 9}, {10, 11, 12}, {13, 14, 15}, {16, 17, 18}, {19, 20, 21}, {22, 23, 24}, {25, 26, 27}, {28, 29, 30}, {31, 32, 33}, {34, 35, 36}, {37, 38, 39}, {40, 41, 42}, {43, 44, 45}, {46, 47, 48}, {49, 50, 51}, {52, 53, 54}, {55, 56, 57}, {58, 59, 60}, {61, 62, 63}, {64, 65, 66}, {67, 68, 69}, {70, 71, 72}, {73, 74, 75}, {76, 77, 78}, {79, 80, 81}, {82, 83, 84}, {85, 86, 87}, {88, 89, 90}, {91, 92, 93}, {94, 95, 96}, {97, 98, 99}, {100, 101, 102}, {103, 104, 105}, {106, 107, 108}, {109, 110, 111}, {112, 113, 114}, {115, 116, 117}, {118, 119, 120}, {121, 122, 123}, {124, 125, 126}, {127, 128, 129}, {130, 131, 132}, {133, 134, 135}, {136, 137, 138}, {139, 140, 141}, {142, 143, 144}, {145, 146, 147}, {148, 149, 150}];
succ =  [{12, 8, 5, 2}, {10, 9, 7}, {19, 17, 16, 15, 14, 12, 11}, {19, 17, 15, 12, 11}, {16, 9}, {16, 9}, {19, 18, 17, 16, 14}, {19, 16, 15, 11}, {19, 17, 11}, {18, 16}, {29, 20, 18}, {29, 20, 18}, {29, 20, 18}, {30, 29, 28, 24, 23, 22, 21}, {41, 30, 29, 28, 24, 23, 21}, {29, 24, 23, 20}, {39, 30, 28, 25, 24, 23, 22}, {30, 24, 23, 22, 21}, {24, 20}, {39, 34, 28, 25, 22}, {39, 34, 32, 31, 27, 25}, {41, 32, 31, 27, 26}, {34, 31, 27, 26}, {40, 31, 26}, {40, 26}, {35, 33}, {40, 33}, {40, 33}, {44, 43, 42, 40, 38, 37, 36}, {44, 43, 38, 37, 35}, {33}, {33}, {44, 43, 42, 38, 37, 36}, {43, 42, 38, 37, 36}, {42, 36}, {49, 48, 47, 46, 45}, {50, 49, 48, 47, 45}, {49, 48, 47, 46, 45}, {50, 49, 47, 46, 45}, {48, 47, 46, 45}, {46, 45, 44}, {47, 46}, {49, 45}, {48}, {}, {}, {}, {}, {}, {}];
n_opt = 150;
dur = [7, 8, 13, 17, 26, 29, 16, 21, 27, 2, 5, 30, 10, 14, 15, 7, 14, 27, 6, 18, 28, 13, 15, 21, 4, 9, 11, 11, 21, 30, 6, 7, 16, 6, 11, 29, 7, 23, 28, 14, 19, 27, 6, 11, 30, 6, 13, 25, 13, 21, 27, 4, 8, 14, 3, 5, 29, 2, 15, 21, 6, 9, 17, 11, 15, 19, 8, 12, 15, 10, 24, 28, 3, 4, 8, 8, 13, 23, 5, 11, 28, 1, 14, 28, 12, 16, 19, 3, 16, 17, 6, 7, 15, 3, 15, 29, 5, 8, 22, 1, 3, 22, 7, 20, 29, 2, 3, 15, 3, 8, 21, 1, 7, 13, 6, 15, 18, 14, 26, 30, 12, 19, 21, 9, 15, 26, 9, 24, 26, 1, 4, 22, 2, 14, 25, 3, 18, 27, 5, 17, 23, 13, 17, 23, 10, 19, 23, 6, 10, 30];
rreq = [|5, 3, 2, 1, 1, 1, 2, 2, 2, 5, 3, 2, 4, 3, 1, 4, 4, 4, 2, 2, 2, 2, 2, 2, 4, 4, 2, 3, 2, 2, 4, 4, 4, 1, 1, 1, 1, 1, 1, 2, 2, 2, 4, 2, 2, 4, 4, 4, 2, 2, 2, 3, 2, 2, 5, 3, 2, 2, 1, 1, 2, 2, 2, 3, 3, 1, 4, 3, 2, 2, 2, 2, 2, 1, 1, 4, 3, 2, 4, 2, 2, 2, 1, 1, 3, 2, 1, 3, 1, 1, 4, 4, 3, 5, 5, 5, 3, 3, 3, 4, 2, 1, 4, 4, 3, 3, 1, 1, 1, 1, 1, 3, 2, 1, 2, 1, 1, 4, 2, 2, 2, 2, 2, 4, 3, 1, 1, 1, 1, 3, 2, 1, 5, 4, 3, 2, 2, 1, 1, 1, 1, 2, 2, 2, 5, 4, 3, 5, 4, 3
 |5, 3, 3, 1, 1, 1, 3, 2, 1, 4, 3, 2, 3, 3, 3, 5, 2, 1, 4, 2, 1, 3, 3, 2, 1, 1, 1, 4, 3, 3, 2, 1, 1, 3, 3, 3, 5, 3, 2, 3, 1, 1, 5, 2, 2, 3, 3, 1, 5, 3, 3, 4, 4, 4, 3, 2, 2, 4, 3, 2, 4, 3, 2, 1, 1, 1, 3, 2, 2, 2, 2, 2, 3, 2, 1, 1, 1, 1, 4, 4, 3, 3, 3, 3, 5, 3, 2, 1, 1, 1, 3, 3, 3, 2, 2, 2, 5, 3, 3, 2, 2, 2, 3, 3, 3, 5, 5, 5, 5, 3, 3, 4, 4, 4, 5, 5, 5, 4, 2, 1, 5, 3, 1, 3, 2, 2, 5, 4, 4, 3, 3, 1, 4, 3, 3, 5, 4, 2, 3, 3, 1, 3, 2, 2, 1, 1, 1, 3, 3, 3
 |3, 2, 2, 3, 3, 3, 3, 1, 1, 5, 4, 4, 5, 4, 4, 5, 4, 4, 3, 1, 1, 2, 2, 1, 5, 4, 4, 5, 3, 2, 3, 2, 2, 3, 2, 1, 3, 2, 2, 4, 2, 2, 4, 4, 3, 4, 3, 2, 3, 2, 2, 1, 1, 1, 2, 1, 1, 1, 1, 1, 4, 4, 4, 4, 4, 2, 3, 2, 2, 3, 3, 3, 4, 3, 3, 3, 3, 2, 3, 2, 2, 5, 4, 3, 5, 5, 5, 5, 3, 3, 4, 3, 2, 2, 1, 1, 3, 3, 3, 3, 2, 2, 2, 2, 2, 4, 4, 4, 2, 2, 2, 2, 2, 2, 3, 1, 1, 4, 3, 2, 2, 2, 2, 3, 3, 3, 3, 3, 2, 3, 2, 2, 4, 3, 3, 5, 3, 3, 5, 4, 4, 4, 4, 3, 3, 3, 2, 4, 3, 3
 |4, 4, 4, 5, 3, 3, 2, 2, 2, 5, 2, 2, 2, 2, 2, 5, 4, 2, 1, 1, 1, 5, 3, 3, 3, 2, 2, 2, 1, 1, 5, 4, 2, 1, 1, 1, 3, 2, 2, 4, 2, 1, 2, 2, 2, 1, 1, 1, 2, 1, 1, 5, 3, 3, 3, 3, 1, 3, 3, 3, 4, 4, 4, 4, 2, 2, 4, 3, 1, 5, 3, 3, 5, 4, 4, 4, 3, 1, 4, 4, 3, 4, 2, 2, 3, 2, 1, 2, 1, 1, 5, 4, 4, 4, 2, 1, 1, 1, 1, 1, 1, 1, 3, 2, 1, 4, 3, 3, 2, 1, 1, 2, 1, 1, 5, 3, 1, 2, 1, 1, 3, 3, 3, 2, 2, 2, 5, 3, 3, 1, 1, 1, 3, 3, 3, 5, 4, 4, 5, 5, 5, 4, 4, 3, 4, 3, 3, 2, 2, 1
 |14, 13, 12, 19, 12, 10, 19, 16, 4, 17, 13, 8, 28, 17, 17, 22, 15, 15, 28, 14, 10, 12, 11, 10, 17, 16, 13, 22, 22, 20, 18, 17, 17, 18, 17, 17, 28, 24, 19, 20, 18, 13, 24, 14, 6, 20, 20, 15, 13, 7, 5, 19, 9, 9, 15, 15, 13, 23, 22, 14, 18, 17, 17, 27, 21, 15, 21, 13, 7, 11, 9, 6, 7, 3, 3, 5, 3, 1, 10, 10, 5, 16, 16, 14, 18, 15, 12, 28, 26, 26, 18, 15, 14, 11, 4, 1, 21, 19, 9, 27, 16, 14, 27, 19, 16, 10, 10, 8, 21, 19, 17, 26, 16, 3, 26, 22, 22, 21, 19, 6, 21, 17, 10, 23, 12, 5, 27, 21, 19, 20, 20, 20, 29, 29, 29, 18, 15, 13, 24, 16, 15, 9, 7, 3, 24, 17, 13, 12, 12, 10
 |14, 6, 6, 5, 5, 4, 24, 19, 12, 17, 14, 12, 28, 18, 6, 23, 23, 22, 19, 11, 6, 28, 24, 22, 21, 15, 9, 23, 21, 19, 5, 3, 3, 16, 16, 14, 25, 18, 13, 28, 19, 14, 15, 13, 12, 16, 13, 12, 23, 17, 10, 22, 18, 10, 26, 14, 4, 17, 17, 7, 25, 17, 15, 18, 18, 18, 22, 20, 19, 7, 6, 4, 18, 16, 14, 19, 16, 5, 18, 16, 11, 9, 9, 9, 27, 18, 14, 27, 24, 20, 18, 18, 14, 17, 16, 9, 22, 21, 19, 27, 15, 9, 12, 8, 4, 18, 16, 14, 4, 4, 3, 17, 17, 5, 6, 4, 3, 13, 10, 6, 22, 18, 13, 22, 19, 17, 26, 19, 16, 27, 26, 24, 11, 10, 8, 16, 14, 10, 28, 22, 10, 20, 17, 14, 13, 10, 9, 24, 22, 20
 |18, 17, 15, 16, 10, 9, 19, 18, 17, 13, 13, 13, 13, 13, 13, 13, 12, 11, 12, 6, 6, 27, 27, 22, 5, 5, 4, 14, 7, 1, 8, 6, 3, 17, 15, 13, 28, 21, 15, 10, 10, 6, 26, 26, 25, 16, 13, 12, 19, 17, 16, 28, 21, 19, 24, 24, 23, 21, 19, 13, 29, 22, 17, 29, 22, 15, 17, 12, 7, 17, 15, 13, 17, 16, 14, 22, 17, 8, 23, 22, 20, 23, 21, 17, 10, 9, 8, 22, 21, 21, 4, 3, 3, 11, 8, 2, 20, 15, 12, 10, 7, 6, 9, 8, 7, 22, 19, 19, 25, 25, 24, 27, 26, 26, 17, 10, 7, 26, 23, 22, 19, 19, 19, 14, 8, 5, 21, 19, 16, 28, 22, 20, 23, 19, 12, 21, 20, 15, 21, 20, 19, 21, 18, 12, 22, 16, 9, 16, 10, 10
 |23, 18, 10, 9, 5, 4, 12, 7, 6, 17, 15, 13, 17, 15, 12, 25, 19, 8, 2, 1, 1, 26, 25, 25, 21, 15, 13, 17, 16, 12, 26, 23, 23, 25, 24, 24, 25, 22, 12, 12, 12, 7, 29, 20, 16, 25, 19, 8, 19, 15, 13, 28, 22, 19, 22, 18, 10, 23, 21, 17, 18, 11, 3, 25, 13, 7, 22, 21, 20, 28, 28, 26, 15, 13, 9, 19, 15, 8, 23, 14, 10, 23, 22, 19, 25, 13, 9, 25, 17, 7, 30, 29, 29, 16, 15, 14, 19, 19, 19, 6, 4, 3, 13, 10, 5, 22, 15, 11, 15, 8, 8, 29, 16, 10, 20, 16, 10, 22, 15, 10, 11, 10, 7, 9, 5, 5, 12, 10, 4, 22, 20, 12, 16, 12, 7, 28, 14, 8, 16, 13, 9, 21, 12, 9, 28, 21, 6, 3, 1, 1|];